tsp_instances/TSP20/instance27.tsp
NODE_COORD_SECTION
0 68 153
1 70 93
2 67 12
3 122 182
4 153 166
5 155 77
6 43 8
7 129 28
8 160 93
9 194 12
10 6 65
11 115 10
12 37 38
13 198 124
14 51 48
15 141 150
16 61 76
17 1 178
18 175 133
19 125 158
