tsp_instances/TSP20/instance27.opt.tour
TOUR_SECTION
1
4
20
16
5
19
14
9
6
10
8
12
3
7
13
11
15
17
2
18
-1